220	8 1
27 32 27 32 27 32 27 32
25 18 32 46
0 0
2  4 1 455 3 455 5 455 7 455 4 2 182 4 182 6 182 8 182
2  4 1 455 3 455 5 455 7 455 4 2 182 4 182 6 182 8 182
2  4 1 455 3 455 5 455 7 455 4 2 182 4 182 6 182 8 182
2  4 1 455 3 455 5 455 7 455 4 2 182 4 182 6 182 8 182
2  4 1 455 3 455 5 455 7 455 4 2 182 4 182 6 182 8 182
2  4 1 455 3 455 5 455 7 455 4 2 182 4 182 6 182 8 182
2  4 1 455 3 455 5 455 7 455 4 2 182 4 182 6 182 8 182
2  4 1 455 3 455 5 455 7 455 4 2 182 4 182 6 182 8 182
2  4 1 455 3 455 5 455 7 455 4 2 182 4 182 6 182 8 182
2  4 1 455 3 455 5 455 7 455 4 2 182 4 182 6 182 8 182
2  4 1 455 3 455 5 455 7 455 4 2 182 4 182 6 182 8 182
2  4 1 455 3 455 5 455 7 455 4 2 182 4 182 6 182 8 182
2  4 1 455 3 455 5 455 7 455 4 2 182 4 182 6 182 8 182
2  4 1 455 3 455 5 455 7 455 4 2 182 4 182 6 182 8 182
2  4 1 455 3 455 5 455 7 455 4 2 182 4 182 6 182 8 182
2  4 1 455 3 455 5 455 7 455 4 2 182 4 182 6 182 8 182
2  4 1 455 3 455 5 455 7 455 4 2 182 4 182 6 182 8 182
2  4 1 455 3 455 5 455 7 455 4 2 182 4 182 6 182 8 182
2  4 1 455 3 455 5 455 7 455 4 2 182 4 182 6 182 8 182
2  4 1 455 3 455 5 455 7 455 4 2 182 4 182 6 182 8 182
2  4 1 455 3 455 5 455 7 455 4 2 182 4 182 6 182 8 182
2  4 1 455 3 455 5 455 7 455 4 2 182 4 182 6 182 8 182
2  4 1 455 3 455 5 455 7 455 4 2 182 4 182 6 182 8 182
2  4 1 455 3 455 5 455 7 455 4 2 182 4 182 6 182 8 182
2  4 1 455 3 455 5 455 7 455 4 2 182 4 182 6 182 8 182
2  4 1 455 3 455 5 455 7 455 4 2 182 4 182 6 182 8 182
2  4 1 455 3 455 5 455 7 455 4 2 182 4 182 6 182 8 182
2  4 1 455 3 455 5 455 7 455 4 2 182 4 182 6 182 8 182
2  4 1 455 3 455 5 455 7 455 4 2 182 4 182 6 182 8 182
2  4 1 455 3 455 5 455 7 455 4 2 182 4 182 6 182 8 182
2  4 1 455 3 455 5 455 7 455 4 2 182 4 182 6 182 8 182
2  4 1 455 3 455 5 455 7 455 4 2 182 4 182 6 182 8 182
2  4 1 455 3 455 5 455 7 455 4 2 182 4 182 6 182 8 182
2  4 1 455 3 455 5 455 7 455 4 2 182 4 182 6 182 8 182
2  4 1 455 3 455 5 455 7 455 4 2 182 4 182 6 182 8 182
2  4 1 455 3 455 5 455 7 455 4 2 182 4 182 6 182 8 182
2  4 1 455 3 455 5 455 7 455 4 2 182 4 182 6 182 8 182
2  4 1 455 3 455 5 455 7 455 4 2 182 4 182 6 182 8 182
2  4 1 455 3 455 5 455 7 455 4 2 182 4 182 6 182 8 182
2  4 1 455 3 455 5 455 7 455 4 2 182 4 182 6 182 8 182
2  4 1 455 3 455 5 455 7 455 4 2 182 4 182 6 182 8 182
2  4 1 455 3 455 5 455 7 455 4 2 182 4 182 6 182 8 182
2  4 1 455 3 455 5 455 7 455 4 2 182 4 182 6 182 8 182
2  4 1 455 3 455 5 455 7 455 4 2 182 4 182 6 182 8 182
2  4 1 455 3 455 5 455 7 455 4 2 182 4 182 6 182 8 182
2  4 1 455 3 455 5 455 7 455 4 2 182 4 182 6 182 8 182
2  4 1 455 3 455 5 455 7 455 4 2 182 4 182 6 182 8 182
2  4 1 455 3 455 5 455 7 455 4 2 182 4 182 6 182 8 182
2  4 1 455 3 455 5 455 7 455 4 2 182 4 182 6 182 8 182
2  4 1 455 3 455 5 455 7 455 4 2 182 4 182 6 182 8 182
2  4 1 455 3 455 5 455 7 455 4 2 182 4 182 6 182 8 182
2  4 1 455 3 455 5 455 7 455 4 2 182 4 182 6 182 8 182
2  4 1 455 3 455 5 455 7 455 4 2 182 4 182 6 182 8 182
2  4 1 455 3 455 5 455 7 455 4 2 182 4 182 6 182 8 182
2  4 1 455 3 455 5 455 7 455 4 2 182 4 182 6 182 8 182
2  4 1 455 3 455 5 455 7 455 4 2 182 4 182 6 182 8 182
2  4 1 455 3 455 5 455 7 455 4 2 182 4 182 6 182 8 182
2  4 1 455 3 455 5 455 7 455 4 2 182 4 182 6 182 8 182
2  4 1 455 3 455 5 455 7 455 4 2 182 4 182 6 182 8 182
2  4 1 455 3 455 5 455 7 455 4 2 182 4 182 6 182 8 182
2  4 1 455 3 455 5 455 7 455 4 2 182 4 182 6 182 8 182
2  4 1 455 3 455 5 455 7 455 4 2 182 4 182 6 182 8 182
2  4 1 455 3 455 5 455 7 455 4 2 182 4 182 6 182 8 182
2  4 1 455 3 455 5 455 7 455 4 2 182 4 182 6 182 8 182
2  4 1 455 3 455 5 455 7 455 4 2 182 4 182 6 182 8 182
2  4 1 455 3 455 5 455 7 455 4 2 182 4 182 6 182 8 182
2  4 1 455 3 455 5 455 7 455 4 2 182 4 182 6 182 8 182
2  4 1 455 3 455 5 455 7 455 4 2 182 4 182 6 182 8 182
2  4 1 455 3 455 5 455 7 455 4 2 182 4 182 6 182 8 182
2  4 1 455 3 455 5 455 7 455 4 2 182 4 182 6 182 8 182
2  4 1 455 3 455 5 455 7 455 4 2 182 4 182 6 182 8 182
2  4 1 455 3 455 5 455 7 455 4 2 182 4 182 6 182 8 182
2  4 1 455 3 455 5 455 7 455 4 2 182 4 182 6 182 8 182
2  4 1 455 3 455 5 455 7 455 4 2 182 4 182 6 182 8 182
2  4 1 455 3 455 5 455 7 455 4 2 182 4 182 6 182 8 182
2  4 1 455 3 455 5 455 7 455 4 2 182 4 182 6 182 8 182
2  4 1 455 3 455 5 455 7 455 4 2 182 4 182 6 182 8 182
2  4 1 455 3 455 5 455 7 455 4 2 182 4 182 6 182 8 182
2  4 1 455 3 455 5 455 7 455 4 2 182 4 182 6 182 8 182
2  4 1 455 3 455 5 455 7 455 4 2 182 4 182 6 182 8 182
2  4 1 455 3 455 5 455 7 455 4 2 182 4 182 6 182 8 182
2  4 1 455 3 455 5 455 7 455 4 2 182 4 182 6 182 8 182
2  4 1 455 3 455 5 455 7 455 4 2 182 4 182 6 182 8 182
2  4 1 455 3 455 5 455 7 455 4 2 182 4 182 6 182 8 182
2  4 1 455 3 455 5 455 7 455 4 2 182 4 182 6 182 8 182
2  4 1 455 3 455 5 455 7 455 4 2 182 4 182 6 182 8 182
2  4 1 455 3 455 5 455 7 455 4 2 182 4 182 6 182 8 182
2  4 1 455 3 455 5 455 7 455 4 2 182 4 182 6 182 8 182
2  4 1 455 3 455 5 455 7 455 4 2 182 4 182 6 182 8 182
2  4 1 455 3 455 5 455 7 455 4 2 182 4 182 6 182 8 182
2  4 1 455 3 455 5 455 7 455 4 2 182 4 182 6 182 8 182
2  4 1 455 3 455 5 455 7 455 4 2 182 4 182 6 182 8 182
2  4 1 455 3 455 5 455 7 455 4 2 182 4 182 6 182 8 182
2  4 1 455 3 455 5 455 7 455 4 2 182 4 182 6 182 8 182
2  4 1 455 3 455 5 455 7 455 4 2 182 4 182 6 182 8 182
2  4 1 455 3 455 5 455 7 455 4 2 182 4 182 6 182 8 182
2  4 1 455 3 455 5 455 7 455 4 2 182 4 182 6 182 8 182
2  4 1 455 3 455 5 455 7 455 4 2 182 4 182 6 182 8 182
2  4 1 455 3 455 5 455 7 455 4 2 182 4 182 6 182 8 182
2  4 1 455 3 455 5 455 7 455 4 2 182 4 182 6 182 8 182
2  4 1 455 3 455 5 455 7 455 4 2 182 4 182 6 182 8 182
2  4 1 455 3 455 5 455 7 455 4 2 182 4 182 6 182 8 182
2  4 1 455 3 455 5 455 7 455 4 2 182 4 182 6 182 8 182
2  4 1 455 3 455 5 455 7 455 4 2 182 4 182 6 182 8 182
2  4 1 455 3 455 5 455 7 455 4 2 182 4 182 6 182 8 182
2  4 1 455 3 455 5 455 7 455 4 2 182 4 182 6 182 8 182
2  4 1 455 3 455 5 455 7 455 4 2 182 4 182 6 182 8 182
2  4 1 455 3 455 5 455 7 455 4 2 182 4 182 6 182 8 182
2  4 1 455 3 455 5 455 7 455 4 2 182 4 182 6 182 8 182
2  4 1 455 3 455 5 455 7 455 4 2 182 4 182 6 182 8 182
2  4 1 455 3 455 5 455 7 455 4 2 182 4 182 6 182 8 182
2  4 1 455 3 455 5 455 7 455 4 2 182 4 182 6 182 8 182
2  4 1 455 3 455 5 455 7 455 4 2 182 4 182 6 182 8 182
2  4 1 455 3 455 5 455 7 455 4 2 182 4 182 6 182 8 182
2  4 1 455 3 455 5 455 7 455 4 2 182 4 182 6 182 8 182
2  4 1 455 3 455 5 455 7 455 4 2 182 4 182 6 182 8 182
2  4 1 455 3 455 5 455 7 455 4 2 182 4 182 6 182 8 182
2  4 1 455 3 455 5 455 7 455 4 2 182 4 182 6 182 8 182
2  4 1 455 3 455 5 455 7 455 4 2 182 4 182 6 182 8 182
2  4 1 455 3 455 5 455 7 455 4 2 182 4 182 6 182 8 182
2  4 1 455 3 455 5 455 7 455 4 2 182 4 182 6 182 8 182
2  4 1 455 3 455 5 455 7 455 4 2 182 4 182 6 182 8 182
2  4 1 455 3 455 5 455 7 455 4 2 182 4 182 6 182 8 182
2  4 1 455 3 455 5 455 7 455 4 2 182 4 182 6 182 8 182
2  4 1 455 3 455 5 455 7 455 4 2 182 4 182 6 182 8 182
2  4 1 455 3 455 5 455 7 455 4 2 182 4 182 6 182 8 182
2  4 1 455 3 455 5 455 7 455 4 2 182 4 182 6 182 8 182
2  4 1 455 3 455 5 455 7 455 4 2 182 4 182 6 182 8 182
2  4 1 455 3 455 5 455 7 455 4 2 182 4 182 6 182 8 182
2  4 1 455 3 455 5 455 7 455 4 2 182 4 182 6 182 8 182
2  4 1 455 3 455 5 455 7 455 4 2 182 4 182 6 182 8 182
2  4 1 455 3 455 5 455 7 455 4 2 182 4 182 6 182 8 182
2  4 1 455 3 455 5 455 7 455 4 2 182 4 182 6 182 8 182
2  4 1 455 3 455 5 455 7 455 4 2 182 4 182 6 182 8 182
2  4 1 455 3 455 5 455 7 455 4 2 182 4 182 6 182 8 182
2  4 1 455 3 455 5 455 7 455 4 2 182 4 182 6 182 8 182
2  4 1 455 3 455 5 455 7 455 4 2 182 4 182 6 182 8 182
2  4 1 455 3 455 5 455 7 455 4 2 182 4 182 6 182 8 182
2  4 1 455 3 455 5 455 7 455 4 2 182 4 182 6 182 8 182
2  4 1 455 3 455 5 455 7 455 4 2 182 4 182 6 182 8 182
2  4 1 455 3 455 5 455 7 455 4 2 182 4 182 6 182 8 182
2  4 1 455 3 455 5 455 7 455 4 2 182 4 182 6 182 8 182
2  4 1 455 3 455 5 455 7 455 4 2 182 4 182 6 182 8 182
2  4 1 455 3 455 5 455 7 455 4 2 182 4 182 6 182 8 182
2  4 1 455 3 455 5 455 7 455 4 2 182 4 182 6 182 8 182
2  4 1 455 3 455 5 455 7 455 4 2 182 4 182 6 182 8 182
2  4 1 455 3 455 5 455 7 455 4 2 182 4 182 6 182 8 182
2  4 1 455 3 455 5 455 7 455 4 2 182 4 182 6 182 8 182
2  4 1 455 3 455 5 455 7 455 4 2 182 4 182 6 182 8 182
2  4 1 455 3 455 5 455 7 455 4 2 182 4 182 6 182 8 182
2  4 1 455 3 455 5 455 7 455 4 2 182 4 182 6 182 8 182
2  4 1 455 3 455 5 455 7 455 4 2 182 4 182 6 182 8 182
2  4 1 455 3 455 5 455 7 455 4 2 182 4 182 6 182 8 182
2  4 1 455 3 455 5 455 7 455 4 2 182 4 182 6 182 8 182
2  4 1 455 3 455 5 455 7 455 4 2 182 4 182 6 182 8 182
2  4 1 455 3 455 5 455 7 455 4 2 182 4 182 6 182 8 182
2  4 1 455 3 455 5 455 7 455 4 2 182 4 182 6 182 8 182
2  4 1 455 3 455 5 455 7 455 4 2 182 4 182 6 182 8 182
2  4 1 455 3 455 5 455 7 455 4 2 182 4 182 6 182 8 182
2  4 1 455 3 455 5 455 7 455 4 2 182 4 182 6 182 8 182
2  4 1 455 3 455 5 455 7 455 4 2 182 4 182 6 182 8 182
2  4 1 455 3 455 5 455 7 455 4 2 182 4 182 6 182 8 182
2  4 1 455 3 455 5 455 7 455 4 2 182 4 182 6 182 8 182
2  4 1 455 3 455 5 455 7 455 4 2 182 4 182 6 182 8 182
2  4 1 455 3 455 5 455 7 455 4 2 182 4 182 6 182 8 182
2  4 1 455 3 455 5 455 7 455 4 2 182 4 182 6 182 8 182
2  4 1 455 3 455 5 455 7 455 4 2 182 4 182 6 182 8 182
2  4 1 455 3 455 5 455 7 455 4 2 182 4 182 6 182 8 182
2  4 1 455 3 455 5 455 7 455 4 2 182 4 182 6 182 8 182
2  4 1 455 3 455 5 455 7 455 4 2 182 4 182 6 182 8 182
2  4 1 455 3 455 5 455 7 455 4 2 182 4 182 6 182 8 182
2  4 1 455 3 455 5 455 7 455 4 2 182 4 182 6 182 8 182
2  4 1 455 3 455 5 455 7 455 4 2 182 4 182 6 182 8 182
2  4 1 455 3 455 5 455 7 455 4 2 182 4 182 6 182 8 182
2  4 1 455 3 455 5 455 7 455 4 2 182 4 182 6 182 8 182
2  4 1 455 3 455 5 455 7 455 4 2 182 4 182 6 182 8 182
2  4 1 455 3 455 5 455 7 455 4 2 182 4 182 6 182 8 182
2  4 1 455 3 455 5 455 7 455 4 2 182 4 182 6 182 8 182
2  4 1 455 3 455 5 455 7 455 4 2 182 4 182 6 182 8 182
2  4 1 455 3 455 5 455 7 455 4 2 182 4 182 6 182 8 182
2  4 1 455 3 455 5 455 7 455 4 2 182 4 182 6 182 8 182
2  4 1 455 3 455 5 455 7 455 4 2 182 4 182 6 182 8 182
2  4 1 455 3 455 5 455 7 455 4 2 182 4 182 6 182 8 182
2  4 1 455 3 455 5 455 7 455 4 2 182 4 182 6 182 8 182
2  4 1 455 3 455 5 455 7 455 4 2 182 4 182 6 182 8 182
2  4 1 455 3 455 5 455 7 455 4 2 182 4 182 6 182 8 182
2  4 1 455 3 455 5 455 7 455 4 2 182 4 182 6 182 8 182
2  4 1 455 3 455 5 455 7 455 4 2 182 4 182 6 182 8 182
2  4 1 455 3 455 5 455 7 455 4 2 182 4 182 6 182 8 182
2  4 1 455 3 455 5 455 7 455 4 2 182 4 182 6 182 8 182
2  4 1 455 3 455 5 455 7 455 4 2 182 4 182 6 182 8 182
2  4 1 455 3 455 5 455 7 455 4 2 182 4 182 6 182 8 182
2  4 1 455 3 455 5 455 7 455 4 2 182 4 182 6 182 8 182
2  4 1 455 3 455 5 455 7 455 4 2 182 4 182 6 182 8 182
2  4 1 455 3 455 5 455 7 455 4 2 182 4 182 6 182 8 182
2  4 1 455 3 455 5 455 7 455 4 2 182 4 182 6 182 8 182
2  4 1 455 3 455 5 455 7 455 4 2 182 4 182 6 182 8 182
2  4 1 455 3 455 5 455 7 455 4 2 182 4 182 6 182 8 182
2  4 1 455 3 455 5 455 7 455 4 2 182 4 182 6 182 8 182
2  4 1 455 3 455 5 455 7 455 4 2 182 4 182 6 182 8 182
2  4 1 455 3 455 5 455 7 455 4 2 182 4 182 6 182 8 182
2  4 1 455 3 455 5 455 7 455 4 2 182 4 182 6 182 8 182
2  4 1 455 3 455 5 455 7 455 4 2 182 4 182 6 182 8 182
2  4 1 455 3 455 5 455 7 455 4 2 182 4 182 6 182 8 182
2  4 1 455 3 455 5 455 7 455 4 2 182 4 182 6 182 8 182
2  4 1 455 3 455 5 455 7 455 4 2 182 4 182 6 182 8 182
2  4 1 455 3 455 5 455 7 455 4 2 182 4 182 6 182 8 182
2  4 1 455 3 455 5 455 7 455 4 2 182 4 182 6 182 8 182
2  4 1 455 3 455 5 455 7 455 4 2 182 4 182 6 182 8 182
2  4 1 455 3 455 5 455 7 455 4 2 182 4 182 6 182 8 182